342 5
10 10 10 10 10 

0 0 0 0 0 0 5 2 14 26 38 50 
0 0 0 0 0 0 3 3 4 6 
4 0 1 0 0 0 5 12 11 10 8 5 
2 0 6 0 0 0 2 8 7 
10 0 7 0 0 0 1 9 
10 0 2 0 0 0 1 7 
1 0 4 0 0 0 1 13 
6 0 4 0 0 0 1 13 
1 0 3 0 0 0 1 13 
4 0 8 0 0 0 1 13 
1 0 8 0 0 0 1 13 
3 0 7 0 0 0 1 13 
0 0 0 0 0 0 1 62 
0 0 0 0 0 0 4 15 16 17 18 
4 0 0 0 1 0 4 24 23 21 20 
8 0 0 0 7 0 3 24 22 19 
8 0 0 0 7 0 3 24 22 19 
3 0 0 0 6 0 3 24 22 19 
5 0 0 0 6 0 1 23 
10 0 0 0 4 0 1 22 
5 0 0 0 6 0 1 22 
2 0 0 0 4 0 1 25 
10 0 0 0 4 0 1 25 
4 0 0 0 5 0 1 25 
0 0 0 0 0 0 1 62 
0 0 0 0 0 0 5 27 29 30 31 36 
2 0 0 0 1 0 3 35 32 28 
6 0 0 0 8 0 2 34 33 
3 0 0 0 1 0 1 33 
1 0 0 0 5 0 1 32 
1 0 0 0 6 0 1 32 
1 0 0 0 5 0 1 37 
7 0 0 0 5 0 1 37 
9 0 0 0 8 0 1 37 
4 0 0 0 4 0 1 37 
4 0 0 0 7 0 1 37 
0 0 0 0 0 0 1 62 
0 0 0 0 0 0 6 39 40 41 43 44 45 
7 0 0 0 1 0 3 48 47 46 
9 0 0 0 6 0 2 46 42 
4 0 0 0 4 0 2 48 46 
10 0 0 0 6 0 1 47 
10 0 0 0 4 0 1 47 
5 0 0 0 5 0 1 46 
2 0 0 0 10 0 1 46 
5 0 0 0 4 0 1 49 
1 0 0 0 3 0 1 49 
8 0 0 0 7 0 1 49 
0 0 0 0 0 0 1 62 
0 0 0 0 0 0 5 51 52 58 59 60 
10 0 0 0 0 1 3 57 56 53 
1 0 0 0 0 4 2 55 53 
6 0 0 0 0 6 1 54 
7 0 0 0 0 4 1 61 
6 0 0 0 0 4 1 61 
6 0 0 0 0 7 1 61 
1 0 0 0 0 7 1 61 
9 0 0 0 0 5 1 61 
3 0 0 0 0 4 1 61 
8 0 0 0 0 8 1 61 
0 0 0 0 0 0 1 62 
0 0 0 0 0 0 5 63 75 107 139 171 
0 0 0 0 0 0 5 64 65 66 67 69 
9 0 0 0 0 1 3 73 72 68 
10 0 0 0 0 7 3 72 71 70 
10 0 0 0 0 6 2 71 70 
6 0 0 0 0 4 2 71 70 
10 0 0 0 0 7 1 70 
4 0 0 0 0 5 1 70 
1 0 0 0 0 3 1 74 
3 0 0 0 0 4 1 74 
1 0 0 0 0 7 1 74 
6 0 0 0 0 6 1 74 
0 0 0 0 0 0 4 203 225 247 269 
0 0 0 0 0 0 6 76 77 78 79 80 105 
3 0 0 1 2 2 5 87 84 83 82 81 
10 0 0 4 5 3 5 90 87 84 82 81 
9 0 0 6 3 10 5 104 85 84 82 81 
8 0 0 6 10 8 4 91 84 83 81 
3 0 0 6 6 6 2 103 83 
3 0 0 4 6 7 3 92 89 86 
9 0 0 4 6 5 3 92 91 88 
7 0 0 3 5 5 3 102 90 85 
1 0 0 6 5 6 2 92 88 
1 0 0 7 4 5 1 88 
8 0 0 8 5 5 1 88 
9 0 0 3 8 4 1 88 
9 0 0 9 6 7 5 101 100 99 96 93 
9 0 0 4 4 3 5 102 100 99 96 93 
1 0 0 4 9 4 5 101 100 99 98 93 
4 0 0 6 3 2 2 102 93 
1 0 0 8 4 6 3 102 99 98 
6 0 0 2 3 5 1 94 
2 0 0 6 1 6 1 95 
2 0 0 1 4 6 1 97 
8 0 0 6 7 5 1 98 
1 0 0 6 5 6 1 106 
4 0 0 5 4 3 1 106 
6 0 0 5 6 6 1 106 
1 0 0 5 4 1 1 106 
3 0 0 5 4 2 1 106 
2 0 0 6 5 5 1 106 
3 0 0 2 3 7 1 106 
8 0 0 2 7 6 1 106 
5 0 0 10 6 4 1 106 
0 0 0 0 0 0 1 317 
0 0 0 0 0 0 6 108 109 110 111 112 137 
3 0 1 1 1 0 4 120 115 114 113 
5 0 7 9 3 0 5 129 120 119 114 113 
10 0 5 9 9 0 4 120 118 114 113 
5 0 4 6 7 0 3 123 115 113 
7 0 8 9 6 0 4 136 123 117 115 
4 0 6 3 7 0 3 122 117 116 
5 0 6 6 6 0 3 124 123 121 
8 0 4 5 3 0 2 119 118 
10 0 6 6 3 0 2 124 121 
4 0 5 6 6 0 1 121 
5 0 6 4 6 0 1 121 
1 0 3 6 4 0 1 121 
6 0 5 3 9 0 1 121 
10 0 5 3 2 0 6 135 134 133 131 128 125 
10 0 7 4 5 0 4 134 128 125 124 
4 0 3 3 8 0 3 132 131 125 
5 0 9 6 6 0 3 133 132 131 
10 0 6 5 6 0 1 126 
7 0 1 7 4 0 1 127 
4 0 6 5 5 0 1 130 
8 0 3 4 4 0 1 132 
2 0 8 8 4 0 1 131 
9 0 2 7 7 0 1 138 
4 0 5 3 4 0 1 138 
4 0 5 4 6 0 1 138 
3 0 5 5 5 0 1 138 
9 0 2 2 4 0 1 138 
2 0 5 4 3 0 1 138 
7 0 9 2 2 0 1 138 
10 0 3 5 5 0 1 138 
0 0 0 0 0 0 1 317 
0 0 0 0 0 0 6 140 141 142 143 145 169 
8 0 1 0 2 1 4 152 147 146 144 
2 0 6 0 2 7 5 168 159 150 149 147 
9 0 7 0 3 5 5 159 158 152 150 148 
4 0 4 0 4 3 5 166 162 158 150 148 
6 0 5 0 4 7 4 162 159 158 148 
9 0 6 0 7 4 5 167 163 153 152 151 
3 0 5 0 6 3 3 163 151 149 
3 0 3 0 8 6 5 163 162 158 157 153 
8 0 2 0 4 1 2 163 149 
10 0 4 0 9 5 3 165 157 153 
6 0 6 0 7 7 3 164 154 153 
4 0 6 0 5 5 3 162 157 155 
3 0 6 0 4 8 2 162 156 
7 0 5 0 5 3 1 155 
5 0 4 0 5 9 1 155 
7 0 8 0 6 8 1 156 
7 0 4 0 5 5 1 160 
2 0 6 0 4 6 1 161 
1 0 4 0 10 3 1 164 
5 0 4 0 6 5 1 164 
4 0 3 0 6 3 1 170 
9 0 4 0 5 5 1 170 
1 0 3 0 3 4 1 170 
10 0 4 0 4 4 1 170 
3 0 9 0 5 8 1 170 
4 0 9 0 5 7 1 170 
1 0 5 0 4 6 1 170 
8 0 5 0 5 2 1 170 
9 0 5 0 2 4 1 170 
7 0 7 0 5 6 1 170 
0 0 0 0 0 0 1 317 
0 0 0 0 0 0 6 172 173 174 175 176 201 
2 0 1 1 1 0 5 195 185 183 178 177 
3 0 4 6 2 0 3 179 178 177 
10 0 4 8 5 0 3 183 178 177 
2 0 4 8 6 0 3 187 179 177 
9 0 4 5 4 0 4 190 187 184 179 
5 0 7 5 5 0 3 184 181 180 
8 0 8 4 1 0 2 187 182 
7 0 6 5 4 0 2 185 183 
5 0 5 3 9 0 2 188 186 
3 0 8 4 4 0 2 188 186 
4 0 3 1 5 0 2 188 186 
5 0 7 5 5 0 1 186 
8 0 6 3 7 0 1 186 
6 0 8 3 7 0 1 186 
8 0 4 10 6 0 6 200 199 198 194 193 189 
3 0 3 2 6 0 3 198 196 189 
1 0 5 7 5 0 3 199 198 196 
3 0 2 8 3 0 1 191 
7 0 4 5 4 0 2 199 196 
4 0 4 4 3 0 1 192 
2 0 6 5 5 0 1 197 
2 0 8 5 4 0 1 196 
3 0 4 4 6 0 1 196 
1 0 6 4 8 0 1 198 
3 0 3 6 9 0 1 202 
5 0 6 3 4 0 1 202 
9 0 6 9 6 0 1 202 
7 0 6 4 7 0 1 202 
2 0 4 8 5 0 1 202 
8 0 4 5 4 0 1 202 
0 0 0 0 0 0 1 317 
0 0 0 0 0 0 9 204 205 207 208 209 211 214 222 223 
2 0 0 0 1 4 3 221 219 206 
1 0 0 0 5 3 4 220 219 218 213 
6 0 0 0 8 10 2 216 210 
9 0 0 0 8 6 3 217 216 215 
2 0 0 0 2 3 2 216 212 
8 0 0 0 5 6 2 218 215 
5 0 0 0 3 2 1 212 
8 0 0 0 6 4 1 213 
4 0 0 0 2 7 1 215 
1 0 0 0 3 9 1 215 
2 0 0 0 7 5 1 217 
5 0 0 0 4 2 1 224 
4 0 0 0 7 6 1 224 
3 0 0 0 3 3 1 224 
10 0 0 0 10 7 1 224 
3 0 0 0 1 7 1 224 
7 0 0 0 7 5 1 224 
5 0 0 0 8 3 1 224 
2 0 0 0 3 4 1 224 
7 0 0 0 7 4 1 224 
0 0 0 0 0 0 1 317 
0 0 0 0 0 0 6 226 227 229 230 231 245 
8 0 1 0 4 0 4 244 241 233 228 
10 0 5 0 4 0 5 242 241 236 235 233 
5 0 7 0 4 0 5 243 242 239 235 232 
4 0 5 0 5 0 4 241 239 235 232 
2 0 7 0 2 0 4 242 241 238 233 
6 0 4 0 8 0 3 242 241 233 
8 0 4 0 3 0 3 240 238 234 
4 0 6 0 6 0 2 239 234 
5 0 3 0 10 0 1 237 
7 0 2 0 4 0 1 238 
4 0 5 0 7 0 1 240 
3 0 8 0 3 0 1 246 
3 0 2 0 3 0 1 246 
1 0 5 0 4 0 1 246 
4 0 6 0 5 0 1 246 
1 0 9 0 4 0 1 246 
2 0 5 0 5 0 1 246 
10 0 6 0 6 0 1 246 
2 0 5 0 6 0 1 246 
3 0 5 0 7 0 1 246 
0 0 0 0 0 0 1 317 
0 0 0 0 0 0 6 248 249 250 251 252 253 
5 0 0 0 1 2 6 267 264 263 260 258 256 
1 0 0 0 5 3 4 265 264 263 254 
7 0 0 0 7 7 5 266 265 264 260 257 
10 0 0 0 4 5 4 265 263 260 256 
8 0 0 0 7 3 3 264 263 255 
9 0 0 0 5 3 5 266 265 264 263 260 
6 0 0 0 5 5 4 266 262 260 259 
6 0 0 0 4 5 3 262 260 259 
2 0 0 0 7 3 1 257 
10 0 0 0 5 10 2 262 259 
9 0 0 0 3 9 2 262 259 
7 0 0 0 4 7 1 261 
1 0 0 0 3 4 1 261 
8 0 0 0 3 2 1 268 
2 0 0 0 2 4 1 268 
6 0 0 0 6 4 1 268 
8 0 0 0 8 2 1 268 
8 0 0 0 9 10 1 268 
7 0 0 0 5 7 1 268 
8 0 0 0 7 5 1 268 
0 0 0 0 0 0 1 317 
0 0 0 0 0 0 3 270 271 272 
3 0 0 0 1 0 3 275 274 273 
10 0 0 0 3 0 3 275 274 273 
2 0 0 0 7 0 2 279 275 
5 0 0 0 5 0 4 279 278 277 276 
9 0 0 0 5 0 4 279 278 277 276 
2 0 0 0 5 0 3 278 277 276 
1 0 0 0 8 0 1 280 
6 0 0 0 4 0 1 280 
10 0 0 0 4 0 1 280 
4 0 0 0 8 0 1 280 
0 0 0 0 0 0 3 281 293 305 
0 0 0 0 0 0 5 282 284 289 290 291 
3 0 0 0 0 1 3 288 285 283 
4 0 0 0 0 7 2 287 286 
1 0 0 0 0 5 1 285 
2 0 0 0 0 5 1 292 
2 0 0 0 0 6 1 292 
2 0 0 0 0 5 1 292 
8 0 0 0 0 4 1 292 
1 0 0 0 0 4 1 292 
8 0 0 0 0 7 1 292 
8 0 0 0 0 6 1 292 
0 0 0 0 0 0 1 317 
0 0 0 0 0 0 5 294 296 301 302 303 
8 0 0 0 1 0 2 300 295 
2 0 0 0 7 0 3 299 298 297 
3 0 0 0 5 0 2 298 297 
10 0 0 0 10 0 1 304 
10 0 0 0 5 0 1 304 
1 0 0 0 1 0 1 304 
5 0 0 0 4 0 1 304 
10 0 0 0 2 0 1 304 
2 0 0 0 7 0 1 304 
4 0 0 0 8 0 1 304 
0 0 0 0 0 0 1 317 
0 0 0 0 0 0 5 306 307 308 314 315 
1 0 1 0 0 0 2 313 309 
5 0 6 0 0 0 4 313 312 311 310 
3 0 5 0 0 0 4 313 312 311 310 
10 0 3 0 0 0 3 312 311 310 
8 0 5 0 0 0 1 316 
5 0 6 0 0 0 1 316 
2 0 6 0 0 0 1 316 
4 0 5 0 0 0 1 316 
6 0 5 0 0 0 1 316 
1 0 8 0 0 0 1 316 
0 0 0 0 0 0 1 317 
0 0 0 0 0 0 2 318 330 
0 0 0 0 0 0 5 319 320 321 322 324 
2 0 0 1 0 0 4 328 327 326 323 
7 0 0 6 0 0 3 327 326 323 
9 0 0 6 0 0 2 326 323 
10 0 0 8 0 0 2 326 323 
5 0 0 3 0 0 1 325 
5 0 0 7 0 0 1 327 
10 0 0 5 0 0 1 329 
8 0 0 8 0 0 1 329 
1 0 0 2 0 0 1 329 
10 0 0 4 0 0 1 329 
0 0 0 0 0 0 1 342 
0 0 0 0 0 0 4 331 332 333 338 
6 0 1 0 0 0 4 337 336 335 334 
10 0 4 0 0 0 3 337 335 334 
7 0 8 0 0 0 3 336 335 334 
5 0 5 0 0 0 2 340 339 
4 0 5 0 0 0 1 340 
4 0 5 0 0 0 1 340 
2 0 6 0 0 0 1 339 
4 0 7 0 0 0 1 339 
5 0 6 0 0 0 1 341 
10 0 3 0 0 0 1 341 
0 0 0 0 0 0 1 342 
0 0 0 0 0 0 0 
